p cnf 212 1028
c Factors encoded in variables 1-8 and 9-16
2 3 4 5 6 7 8 0
10 11 12 13 14 15 16 0
-17 0
18 0
-83 20 27 0
-83 -20 -27 0
83 20 -27 0
83 -20 27 0
-20 -27 84 0
20 27 -84 0
20 -84 0
27 -84 0
-85 21 28 84 0
-85 -21 -28 84 0
-85 -21 28 -84 0
-85 21 -28 -84 0
85 -21 -28 -84 0
85 21 28 -84 0
85 21 -28 84 0
85 -21 28 84 0
-21 -28 86 0
-21 -84 86 0
-28 -84 86 0
21 28 -86 0
21 84 -86 0
28 84 -86 0
-87 22 29 86 0
-87 -22 -29 86 0
-87 -22 29 -86 0
-87 22 -29 -86 0
87 -22 -29 -86 0
87 22 29 -86 0
87 22 -29 86 0
87 -22 29 86 0
-22 -29 88 0
-22 -86 88 0
-29 -86 88 0
22 29 -88 0
22 86 -88 0
29 86 -88 0
-89 23 30 88 0
-89 -23 -30 88 0
-89 -23 30 -88 0
-89 23 -30 -88 0
89 -23 -30 -88 0
89 23 30 -88 0
89 23 -30 88 0
89 -23 30 88 0
-23 -30 90 0
-23 -88 90 0
-30 -88 90 0
23 30 -90 0
23 88 -90 0
30 88 -90 0
-91 24 31 90 0
-91 -24 -31 90 0
-91 -24 31 -90 0
-91 24 -31 -90 0
91 -24 -31 -90 0
91 24 31 -90 0
91 24 -31 90 0
91 -24 31 90 0
-24 -31 92 0
-24 -90 92 0
-31 -90 92 0
24 31 -92 0
24 90 -92 0
31 90 -92 0
-93 25 32 92 0
-93 -25 -32 92 0
-93 -25 32 -92 0
-93 25 -32 -92 0
93 -25 -32 -92 0
93 25 32 -92 0
93 25 -32 92 0
93 -25 32 92 0
-25 -32 94 0
-25 -92 94 0
-32 -92 94 0
25 32 -94 0
25 92 -94 0
32 92 -94 0
-95 26 33 94 0
-95 -26 -33 94 0
-95 -26 33 -94 0
-95 26 -33 -94 0
95 -26 -33 -94 0
95 26 33 -94 0
95 26 -33 94 0
95 -26 33 94 0
-26 -33 96 0
-26 -94 96 0
-33 -94 96 0
26 33 -96 0
26 94 -96 0
33 94 -96 0
-97 34 96 0
-97 -34 -96 0
97 34 -96 0
97 -34 96 0
-34 -96 98 0
34 96 -98 0
34 -98 0
96 -98 0
-99 36 43 0
-99 -36 -43 0
99 36 -43 0
99 -36 43 0
-36 -43 100 0
36 43 -100 0
36 -100 0
43 -100 0
-101 37 44 100 0
-101 -37 -44 100 0
-101 -37 44 -100 0
-101 37 -44 -100 0
101 -37 -44 -100 0
101 37 44 -100 0
101 37 -44 100 0
101 -37 44 100 0
-37 -44 102 0
-37 -100 102 0
-44 -100 102 0
37 44 -102 0
37 100 -102 0
44 100 -102 0
-103 38 45 102 0
-103 -38 -45 102 0
-103 -38 45 -102 0
-103 38 -45 -102 0
103 -38 -45 -102 0
103 38 45 -102 0
103 38 -45 102 0
103 -38 45 102 0
-38 -45 104 0
-38 -102 104 0
-45 -102 104 0
38 45 -104 0
38 102 -104 0
45 102 -104 0
-105 39 46 104 0
-105 -39 -46 104 0
-105 -39 46 -104 0
-105 39 -46 -104 0
105 -39 -46 -104 0
105 39 46 -104 0
105 39 -46 104 0
105 -39 46 104 0
-39 -46 106 0
-39 -104 106 0
-46 -104 106 0
39 46 -106 0
39 104 -106 0
46 104 -106 0
-107 40 47 106 0
-107 -40 -47 106 0
-107 -40 47 -106 0
-107 40 -47 -106 0
107 -40 -47 -106 0
107 40 47 -106 0
107 40 -47 106 0
107 -40 47 106 0
-40 -47 108 0
-40 -106 108 0
-47 -106 108 0
40 47 -108 0
40 106 -108 0
47 106 -108 0
-109 41 48 108 0
-109 -41 -48 108 0
-109 -41 48 -108 0
-109 41 -48 -108 0
109 -41 -48 -108 0
109 41 48 -108 0
109 41 -48 108 0
109 -41 48 108 0
-41 -48 110 0
-41 -108 110 0
-48 -108 110 0
41 48 -110 0
41 108 -110 0
48 108 -110 0
-111 42 49 110 0
-111 -42 -49 110 0
-111 -42 49 -110 0
-111 42 -49 -110 0
111 -42 -49 -110 0
111 42 49 -110 0
111 42 -49 110 0
111 -42 49 110 0
-42 -49 112 0
-42 -110 112 0
-49 -110 112 0
42 49 -112 0
42 110 -112 0
49 110 -112 0
-113 50 112 0
-113 -50 -112 0
113 50 -112 0
113 -50 112 0
-50 -112 114 0
50 112 -114 0
50 -114 0
112 -114 0
-115 52 59 0
-115 -52 -59 0
115 52 -59 0
115 -52 59 0
-52 -59 116 0
52 59 -116 0
52 -116 0
59 -116 0
-117 53 60 116 0
-117 -53 -60 116 0
-117 -53 60 -116 0
-117 53 -60 -116 0
117 -53 -60 -116 0
117 53 60 -116 0
117 53 -60 116 0
117 -53 60 116 0
-53 -60 118 0
-53 -116 118 0
-60 -116 118 0
53 60 -118 0
53 116 -118 0
60 116 -118 0
-119 54 61 118 0
-119 -54 -61 118 0
-119 -54 61 -118 0
-119 54 -61 -118 0
119 -54 -61 -118 0
119 54 61 -118 0
119 54 -61 118 0
119 -54 61 118 0
-54 -61 120 0
-54 -118 120 0
-61 -118 120 0
54 61 -120 0
54 118 -120 0
61 118 -120 0
-121 55 62 120 0
-121 -55 -62 120 0
-121 -55 62 -120 0
-121 55 -62 -120 0
121 -55 -62 -120 0
121 55 62 -120 0
121 55 -62 120 0
121 -55 62 120 0
-55 -62 122 0
-55 -120 122 0
-62 -120 122 0
55 62 -122 0
55 120 -122 0
62 120 -122 0
-123 56 63 122 0
-123 -56 -63 122 0
-123 -56 63 -122 0
-123 56 -63 -122 0
123 -56 -63 -122 0
123 56 63 -122 0
123 56 -63 122 0
123 -56 63 122 0
-56 -63 124 0
-56 -122 124 0
-63 -122 124 0
56 63 -124 0
56 122 -124 0
63 122 -124 0
-125 57 64 124 0
-125 -57 -64 124 0
-125 -57 64 -124 0
-125 57 -64 -124 0
125 -57 -64 -124 0
125 57 64 -124 0
125 57 -64 124 0
125 -57 64 124 0
-57 -64 126 0
-57 -124 126 0
-64 -124 126 0
57 64 -126 0
57 124 -126 0
64 124 -126 0
-127 58 65 126 0
-127 -58 -65 126 0
-127 -58 65 -126 0
-127 58 -65 -126 0
127 -58 -65 -126 0
127 58 65 -126 0
127 58 -65 126 0
127 -58 65 126 0
-58 -65 128 0
-58 -126 128 0
-65 -126 128 0
58 65 -128 0
58 126 -128 0
65 126 -128 0
-129 66 128 0
-129 -66 -128 0
129 66 -128 0
129 -66 128 0
-66 -128 130 0
66 128 -130 0
66 -130 0
128 -130 0
-131 68 75 0
-131 -68 -75 0
131 68 -75 0
131 -68 75 0
-68 -75 132 0
68 75 -132 0
68 -132 0
75 -132 0
-133 69 76 132 0
-133 -69 -76 132 0
-133 -69 76 -132 0
-133 69 -76 -132 0
133 -69 -76 -132 0
133 69 76 -132 0
133 69 -76 132 0
133 -69 76 132 0
-69 -76 134 0
-69 -132 134 0
-76 -132 134 0
69 76 -134 0
69 132 -134 0
76 132 -134 0
-135 70 77 134 0
-135 -70 -77 134 0
-135 -70 77 -134 0
-135 70 -77 -134 0
135 -70 -77 -134 0
135 70 77 -134 0
135 70 -77 134 0
135 -70 77 134 0
-70 -77 136 0
-70 -134 136 0
-77 -134 136 0
70 77 -136 0
70 134 -136 0
77 134 -136 0
-137 71 78 136 0
-137 -71 -78 136 0
-137 -71 78 -136 0
-137 71 -78 -136 0
137 -71 -78 -136 0
137 71 78 -136 0
137 71 -78 136 0
137 -71 78 136 0
-71 -78 138 0
-71 -136 138 0
-78 -136 138 0
71 78 -138 0
71 136 -138 0
78 136 -138 0
-139 72 79 138 0
-139 -72 -79 138 0
-139 -72 79 -138 0
-139 72 -79 -138 0
139 -72 -79 -138 0
139 72 79 -138 0
139 72 -79 138 0
139 -72 79 138 0
-72 -79 140 0
-72 -138 140 0
-79 -138 140 0
72 79 -140 0
72 138 -140 0
79 138 -140 0
-141 73 80 140 0
-141 -73 -80 140 0
-141 -73 80 -140 0
-141 73 -80 -140 0
141 -73 -80 -140 0
141 73 80 -140 0
141 73 -80 140 0
141 -73 80 140 0
-73 -80 142 0
-73 -140 142 0
-80 -140 142 0
73 80 -142 0
73 140 -142 0
80 140 -142 0
-143 74 81 142 0
-143 -74 -81 142 0
-143 -74 81 -142 0
-143 74 -81 -142 0
143 -74 -81 -142 0
143 74 81 -142 0
143 74 -81 142 0
143 -74 81 142 0
-74 -81 144 0
-74 -142 144 0
-81 -142 144 0
74 81 -144 0
74 142 -144 0
81 142 -144 0
-145 82 144 0
-145 -82 -144 0
145 82 -144 0
145 -82 144 0
-82 -144 146 0
82 144 -146 0
82 -146 0
144 -146 0
-147 85 35 0
-147 -85 -35 0
147 85 -35 0
147 -85 35 0
-85 -35 148 0
85 35 -148 0
85 -148 0
35 -148 0
-149 87 99 148 0
-149 -87 -99 148 0
-149 -87 99 -148 0
-149 87 -99 -148 0
149 -87 -99 -148 0
149 87 99 -148 0
149 87 -99 148 0
149 -87 99 148 0
-87 -99 150 0
-87 -148 150 0
-99 -148 150 0
87 99 -150 0
87 148 -150 0
99 148 -150 0
-151 89 101 150 0
-151 -89 -101 150 0
-151 -89 101 -150 0
-151 89 -101 -150 0
151 -89 -101 -150 0
151 89 101 -150 0
151 89 -101 150 0
151 -89 101 150 0
-89 -101 152 0
-89 -150 152 0
-101 -150 152 0
89 101 -152 0
89 150 -152 0
101 150 -152 0
-153 91 103 152 0
-153 -91 -103 152 0
-153 -91 103 -152 0
-153 91 -103 -152 0
153 -91 -103 -152 0
153 91 103 -152 0
153 91 -103 152 0
153 -91 103 152 0
-91 -103 154 0
-91 -152 154 0
-103 -152 154 0
91 103 -154 0
91 152 -154 0
103 152 -154 0
-155 93 105 154 0
-155 -93 -105 154 0
-155 -93 105 -154 0
-155 93 -105 -154 0
155 -93 -105 -154 0
155 93 105 -154 0
155 93 -105 154 0
155 -93 105 154 0
-93 -105 156 0
-93 -154 156 0
-105 -154 156 0
93 105 -156 0
93 154 -156 0
105 154 -156 0
-157 95 107 156 0
-157 -95 -107 156 0
-157 -95 107 -156 0
-157 95 -107 -156 0
157 -95 -107 -156 0
157 95 107 -156 0
157 95 -107 156 0
157 -95 107 156 0
-95 -107 158 0
-95 -156 158 0
-107 -156 158 0
95 107 -158 0
95 156 -158 0
107 156 -158 0
-159 97 109 158 0
-159 -97 -109 158 0
-159 -97 109 -158 0
-159 97 -109 -158 0
159 -97 -109 -158 0
159 97 109 -158 0
159 97 -109 158 0
159 -97 109 158 0
-97 -109 160 0
-97 -158 160 0
-109 -158 160 0
97 109 -160 0
97 158 -160 0
109 158 -160 0
-161 98 111 160 0
-161 -98 -111 160 0
-161 -98 111 -160 0
-161 98 -111 -160 0
161 -98 -111 -160 0
161 98 111 -160 0
161 98 -111 160 0
161 -98 111 160 0
-98 -111 162 0
-98 -160 162 0
-111 -160 162 0
98 111 -162 0
98 160 -162 0
111 160 -162 0
-163 113 162 0
-163 -113 -162 0
163 113 -162 0
163 -113 162 0
-113 -162 164 0
113 162 -164 0
113 -164 0
162 -164 0
-165 114 164 0
-165 -114 -164 0
165 114 -164 0
165 -114 164 0
-114 -164 166 0
114 164 -166 0
114 -166 0
164 -166 0
-167 117 67 0
-167 -117 -67 0
167 117 -67 0
167 -117 67 0
-117 -67 168 0
117 67 -168 0
117 -168 0
67 -168 0
-169 119 131 168 0
-169 -119 -131 168 0
-169 -119 131 -168 0
-169 119 -131 -168 0
169 -119 -131 -168 0
169 119 131 -168 0
169 119 -131 168 0
169 -119 131 168 0
-119 -131 170 0
-119 -168 170 0
-131 -168 170 0
119 131 -170 0
119 168 -170 0
131 168 -170 0
-171 121 133 170 0
-171 -121 -133 170 0
-171 -121 133 -170 0
-171 121 -133 -170 0
171 -121 -133 -170 0
171 121 133 -170 0
171 121 -133 170 0
171 -121 133 170 0
-121 -133 172 0
-121 -170 172 0
-133 -170 172 0
121 133 -172 0
121 170 -172 0
133 170 -172 0
-173 123 135 172 0
-173 -123 -135 172 0
-173 -123 135 -172 0
-173 123 -135 -172 0
173 -123 -135 -172 0
173 123 135 -172 0
173 123 -135 172 0
173 -123 135 172 0
-123 -135 174 0
-123 -172 174 0
-135 -172 174 0
123 135 -174 0
123 172 -174 0
135 172 -174 0
-175 125 137 174 0
-175 -125 -137 174 0
-175 -125 137 -174 0
-175 125 -137 -174 0
175 -125 -137 -174 0
175 125 137 -174 0
175 125 -137 174 0
175 -125 137 174 0
-125 -137 176 0
-125 -174 176 0
-137 -174 176 0
125 137 -176 0
125 174 -176 0
137 174 -176 0
-177 127 139 176 0
-177 -127 -139 176 0
-177 -127 139 -176 0
-177 127 -139 -176 0
177 -127 -139 -176 0
177 127 139 -176 0
177 127 -139 176 0
177 -127 139 176 0
-127 -139 178 0
-127 -176 178 0
-139 -176 178 0
127 139 -178 0
127 176 -178 0
139 176 -178 0
-179 129 141 178 0
-179 -129 -141 178 0
-179 -129 141 -178 0
-179 129 -141 -178 0
179 -129 -141 -178 0
179 129 141 -178 0
179 129 -141 178 0
179 -129 141 178 0
-129 -141 180 0
-129 -178 180 0
-141 -178 180 0
129 141 -180 0
129 178 -180 0
141 178 -180 0
-181 130 143 180 0
-181 -130 -143 180 0
-181 -130 143 -180 0
-181 130 -143 -180 0
181 -130 -143 -180 0
181 130 143 -180 0
181 130 -143 180 0
181 -130 143 180 0
-130 -143 182 0
-130 -180 182 0
-143 -180 182 0
130 143 -182 0
130 180 -182 0
143 180 -182 0
-183 145 182 0
-183 -145 -182 0
183 145 -182 0
183 -145 182 0
-145 -182 184 0
145 182 -184 0
145 -184 0
182 -184 0
-185 146 184 0
-185 -146 -184 0
185 146 -184 0
185 -146 184 0
-146 -184 186 0
146 184 -186 0
146 -186 0
184 -186 0
-187 151 51 0
-187 -151 -51 0
187 151 -51 0
187 -151 51 0
-151 -51 188 0
151 51 -188 0
151 -188 0
51 -188 0
-189 153 115 188 0
-189 -153 -115 188 0
-189 -153 115 -188 0
-189 153 -115 -188 0
189 -153 -115 -188 0
189 153 115 -188 0
189 153 -115 188 0
189 -153 115 188 0
-153 -115 190 0
-153 -188 190 0
-115 -188 190 0
153 115 -190 0
153 188 -190 0
115 188 -190 0
-191 155 167 190 0
-191 -155 -167 190 0
-191 -155 167 -190 0
-191 155 -167 -190 0
191 -155 -167 -190 0
191 155 167 -190 0
191 155 -167 190 0
191 -155 167 190 0
-155 -167 192 0
-155 -190 192 0
-167 -190 192 0
155 167 -192 0
155 190 -192 0
167 190 -192 0
-193 157 169 192 0
-193 -157 -169 192 0
-193 -157 169 -192 0
-193 157 -169 -192 0
193 -157 -169 -192 0
193 157 169 -192 0
193 157 -169 192 0
193 -157 169 192 0
-157 -169 194 0
-157 -192 194 0
-169 -192 194 0
157 169 -194 0
157 192 -194 0
169 192 -194 0
-195 159 171 194 0
-195 -159 -171 194 0
-195 -159 171 -194 0
-195 159 -171 -194 0
195 -159 -171 -194 0
195 159 171 -194 0
195 159 -171 194 0
195 -159 171 194 0
-159 -171 196 0
-159 -194 196 0
-171 -194 196 0
159 171 -196 0
159 194 -196 0
171 194 -196 0
-197 161 173 196 0
-197 -161 -173 196 0
-197 -161 173 -196 0
-197 161 -173 -196 0
197 -161 -173 -196 0
197 161 173 -196 0
197 161 -173 196 0
197 -161 173 196 0
-161 -173 198 0
-161 -196 198 0
-173 -196 198 0
161 173 -198 0
161 196 -198 0
173 196 -198 0
-199 163 175 198 0
-199 -163 -175 198 0
-199 -163 175 -198 0
-199 163 -175 -198 0
199 -163 -175 -198 0
199 163 175 -198 0
199 163 -175 198 0
199 -163 175 198 0
-163 -175 200 0
-163 -198 200 0
-175 -198 200 0
163 175 -200 0
163 198 -200 0
175 198 -200 0
-201 165 177 200 0
-201 -165 -177 200 0
-201 -165 177 -200 0
-201 165 -177 -200 0
201 -165 -177 -200 0
201 165 177 -200 0
201 165 -177 200 0
201 -165 177 200 0
-165 -177 202 0
-165 -200 202 0
-177 -200 202 0
165 177 -202 0
165 200 -202 0
177 200 -202 0
-203 166 179 202 0
-203 -166 -179 202 0
-203 -166 179 -202 0
-203 166 -179 -202 0
203 -166 -179 -202 0
203 166 179 -202 0
203 166 -179 202 0
203 -166 179 202 0
-166 -179 204 0
-166 -202 204 0
-179 -202 204 0
166 179 -204 0
166 202 -204 0
179 202 -204 0
-205 181 204 0
-205 -181 -204 0
205 181 -204 0
205 -181 204 0
-181 -204 206 0
181 204 -206 0
181 -206 0
204 -206 0
-207 183 206 0
-207 -183 -206 0
207 183 -206 0
207 -183 206 0
-183 -206 208 0
183 206 -208 0
183 -208 0
206 -208 0
-209 185 208 0
-209 -185 -208 0
209 185 -208 0
209 -185 208 0
-185 -208 210 0
185 208 -210 0
185 -210 0
208 -210 0
-211 186 210 0
-211 -186 -210 0
211 186 -210 0
211 -186 210 0
-186 -210 212 0
186 210 -212 0
186 -212 0
210 -212 0
19 -1 -9 0
-19 1 0
-19 9 0
20 -2 -9 0
-20 2 0
-20 9 0
21 -3 -9 0
-21 3 0
-21 9 0
22 -4 -9 0
-22 4 0
-22 9 0
23 -5 -9 0
-23 5 0
-23 9 0
24 -6 -9 0
-24 6 0
-24 9 0
25 -7 -9 0
-25 7 0
-25 9 0
26 -8 -9 0
-26 8 0
-26 9 0
27 -1 -10 0
-27 1 0
-27 10 0
28 -2 -10 0
-28 2 0
-28 10 0
29 -3 -10 0
-29 3 0
-29 10 0
30 -4 -10 0
-30 4 0
-30 10 0
31 -5 -10 0
-31 5 0
-31 10 0
32 -6 -10 0
-32 6 0
-32 10 0
33 -7 -10 0
-33 7 0
-33 10 0
34 -8 -10 0
-34 8 0
-34 10 0
35 -1 -11 0
-35 1 0
-35 11 0
36 -2 -11 0
-36 2 0
-36 11 0
37 -3 -11 0
-37 3 0
-37 11 0
38 -4 -11 0
-38 4 0
-38 11 0
39 -5 -11 0
-39 5 0
-39 11 0
40 -6 -11 0
-40 6 0
-40 11 0
41 -7 -11 0
-41 7 0
-41 11 0
42 -8 -11 0
-42 8 0
-42 11 0
43 -1 -12 0
-43 1 0
-43 12 0
44 -2 -12 0
-44 2 0
-44 12 0
45 -3 -12 0
-45 3 0
-45 12 0
46 -4 -12 0
-46 4 0
-46 12 0
47 -5 -12 0
-47 5 0
-47 12 0
48 -6 -12 0
-48 6 0
-48 12 0
49 -7 -12 0
-49 7 0
-49 12 0
50 -8 -12 0
-50 8 0
-50 12 0
51 -1 -13 0
-51 1 0
-51 13 0
52 -2 -13 0
-52 2 0
-52 13 0
53 -3 -13 0
-53 3 0
-53 13 0
54 -4 -13 0
-54 4 0
-54 13 0
55 -5 -13 0
-55 5 0
-55 13 0
56 -6 -13 0
-56 6 0
-56 13 0
57 -7 -13 0
-57 7 0
-57 13 0
58 -8 -13 0
-58 8 0
-58 13 0
59 -1 -14 0
-59 1 0
-59 14 0
60 -2 -14 0
-60 2 0
-60 14 0
61 -3 -14 0
-61 3 0
-61 14 0
62 -4 -14 0
-62 4 0
-62 14 0
63 -5 -14 0
-63 5 0
-63 14 0
64 -6 -14 0
-64 6 0
-64 14 0
65 -7 -14 0
-65 7 0
-65 14 0
66 -8 -14 0
-66 8 0
-66 14 0
67 -1 -15 0
-67 1 0
-67 15 0
68 -2 -15 0
-68 2 0
-68 15 0
69 -3 -15 0
-69 3 0
-69 15 0
70 -4 -15 0
-70 4 0
-70 15 0
71 -5 -15 0
-71 5 0
-71 15 0
72 -6 -15 0
-72 6 0
-72 15 0
73 -7 -15 0
-73 7 0
-73 15 0
74 -8 -15 0
-74 8 0
-74 15 0
75 -1 -16 0
-75 1 0
-75 16 0
76 -2 -16 0
-76 2 0
-76 16 0
77 -3 -16 0
-77 3 0
-77 16 0
78 -4 -16 0
-78 4 0
-78 16 0
79 -5 -16 0
-79 5 0
-79 16 0
80 -6 -16 0
-80 6 0
-80 16 0
81 -7 -16 0
-81 7 0
-81 16 0
82 -8 -16 0
-82 8 0
-82 16 0
19 -18 0
-19 18 0
83 -17 0
-83 17 0
147 -18 0
-147 18 0
149 -18 0
-149 18 0
187 -18 0
-187 18 0
189 -18 0
-189 18 0
191 -17 0
-191 17 0
193 -18 0
-193 18 0
195 -17 0
-195 17 0
197 -17 0
-197 17 0
199 -17 0
-199 17 0
201 -17 0
-201 17 0
203 -17 0
-203 17 0
205 -17 0
-205 17 0
207 -17 0
-207 17 0
209 -17 0
-209 17 0
211 -17 0
-211 17 0
212 -17 0
-212 17 0
